/*********************************************
 * OPL 12.6.3.0 Data
 * Author: krishnam
 * Creation Date: 25-Mar-2018 at 3:17:27 PM
 *********************************************/
  
 n = 3;
 
 dist = [
 			[0, 2, 7],
 			[2, 0, 8],
 			[7, 8, 0]
 		];
 